SYSTEM=MgO-rocksalt
ISMEAR=0
SIGMA=0.05
EDIFF=1E-6
ALGO=ALL
ISTART=0
IBRION=-1
NSW=0
ISYM=2
ISIF=2
EDIFFG=-0.01

DIPOL=0.5 0.5 0.5
IDIPOL = 3
LDIPOL = .TRUE.


LHFCALC = .TRUE.
GGA = PE
IVDW=13
VDW_S8=1.2007
VDW_A1=0.4009
VDW_A2=5.0293


ENCUT=600
PREC=Accurate  #default (Normal) usually safe, structures/energies change little with Accurate
LASPH=.TRUE.
LREAL=.FALSE.
ISPIN=1
NELM=200
NELMIN=8
NCORE=8
KPAR=1

LWAVE=.FALSE.
LCHARG=.FALSE.
