Mg  O
   1.0000000000000000
     8.3491118265846538    0.0000000000000000    0.0000000000000000
     0.0000000000000000    8.3491118265846538    0.0000000000000000
     0.0000000000000000    0.0000000000000000   21.2618338699384921
   Mg   O
    32    32
Selective dynamics
Direct
  0.2500000000000000  0.0000000000000000  0.3527447371604211   F   F   F
  0.5000000000000000  0.2500000000000000  0.3527447371604211   F   F   F
  0.2500000000000000  0.2500000000000000  0.4509149123868070   F   F   F
  0.5000000000000000  0.0000000000000000  0.4509149123868070   F   F   F
  0.2500000000000000 -0.0000000000000000  0.5498249388153000   T   T   T
  0.5000000000000000  0.2500000000000000  0.5498249388153000   T   T   T
  0.2500000000000000  0.2500000000000000  0.6475295203013266   T   T   T
  0.5000000000000000  0.0000000000000000  0.6475295203013266   T   T   T
  0.2500000000000000  0.5000000000000000  0.3527447371604211   F   F   F
  0.5000000000000000  0.7500000000000000  0.3527447371604211   F   F   F
  0.2500000000000000  0.7500000000000000  0.4509149123868070   F   F   F
  0.5000000000000000  0.5000000000000000  0.4509149123868070   F   F   F
  0.2500000000000000  0.5000000000000000  0.5498249388153000   T   T   T
  0.5000000000000000  0.7500000000000000  0.5498249388153000   T   T   T
  0.2500000000000000  0.7500000000000000  0.6475295203013266   T   T   T
  0.5000000000000000  0.5000000000000000  0.6475295203013266   T   T   T
  0.7500000000000000  0.0000000000000000  0.3527447371604211   F   F   F
  0.0000000000000000  0.2500000000000000  0.3527447371604211   F   F   F
  0.7500000000000000  0.2500000000000000  0.4509149123868070   F   F   F
  0.0000000000000000  0.0000000000000000  0.4509149123868070   F   F   F
  0.7500000000000000  0.0000000000000000  0.5498249388153000   T   T   T
 -0.0000000000000000  0.2500000000000000  0.5498249388153000   T   T   T
  0.7500000000000000  0.2500000000000000  0.6475295203013266   T   T   T
  0.0000000000000000 -0.0000000000000000  0.6475295203013266   T   T   T
  0.7500000000000000  0.5000000000000000  0.3527447371604211   F   F   F
  0.0000000000000000  0.7500000000000000  0.3527447371604211   F   F   F
  0.7500000000000000  0.7500000000000000  0.4509149123868070   F   F   F
  0.0000000000000000  0.5000000000000000  0.4509149123868070   F   F   F
  0.7500000000000000  0.5000000000000000  0.5498249388153000   T   T   T
  0.0000000000000000  0.7500000000000000  0.5498249388153000   T   T   T
  0.7500000000000000  0.7500000000000000  0.6475295203013266   T   T   T
 -0.0000000000000000  0.5000000000000000  0.6475295203013266   T   T   T
  0.2500000000000000  0.0000000000000000  0.4509149123868070   F   F   F
  0.5000000000000000  0.2500000000000000  0.4509149123868070   F   F   F
  0.2500000000000000  0.2500000000000000  0.3527447371604211   F   F   F
  0.5000000000000000  0.0000000000000000  0.3527447371604211   F   F   F
  0.2500000000000000  0.0000000000000000  0.6497443813675238   T   T   T
  0.5000000000000000  0.2500000000000000  0.6497443813675238   T   T   T
  0.2500000000000000  0.2500000000000000  0.5495316493568760   T   T   T
  0.5000000000000000  0.0000000000000000  0.5495316493568760   T   T   T
  0.2500000000000000  0.5000000000000000  0.4509149123868070   F   F   F
  0.5000000000000000  0.7500000000000000  0.4509149123868070   F   F   F
  0.2500000000000000  0.7500000000000000  0.3527447371604211   F   F   F
  0.5000000000000000  0.5000000000000000  0.3527447371604211   F   F   F
  0.2500000000000000  0.5000000000000000  0.6497443813675238   T   T   T
  0.5000000000000000  0.7500000000000000  0.6497443813675238   T   T   T
  0.2500000000000000  0.7500000000000000  0.5495316493568760   T   T   T
  0.5000000000000000  0.5000000000000000  0.5495316493568760   T   T   T
  0.7500000000000000  0.0000000000000000  0.4509149123868070   F   F   F
  0.0000000000000000  0.2500000000000000  0.4509149123868070   F   F   F
  0.7500000000000000  0.2500000000000000  0.3527447371604211   F   F   F
  0.0000000000000000  0.0000000000000000  0.3527447371604211   F   F   F
  0.7500000000000000  0.0000000000000000  0.6497443813675238   T   T   T
  0.0000000000000000  0.2500000000000000  0.6497443813675238   T   T   T
  0.7500000000000000  0.2500000000000000  0.5495316493568760   T   T   T
 -0.0000000000000000  0.0000000000000000  0.5495316493568760   T   T   T
  0.7500000000000000  0.5000000000000000  0.4509149123868070   F   F   F
  0.0000000000000000  0.7500000000000000  0.4509149123868070   F   F   F
  0.7500000000000000  0.7500000000000000  0.3527447371604211   F   F   F
  0.0000000000000000  0.5000000000000000  0.3527447371604211   F   F   F
  0.7500000000000000  0.5000000000000000  0.6497443813675238   T   T   T
  0.0000000000000000  0.7500000000000000  0.6497443813675238   T   T   T
  0.7500000000000000  0.7500000000000000  0.5495316493568760   T   T   T
  0.0000000000000000  0.5000000000000000  0.5495316493568760   T   T   T

  0.00000000E+00  0.00000000E+00  0.00000000E+00
  0.00000000E+00  0.00000000E+00  0.00000000E+00
  0.00000000E+00  0.00000000E+00  0.00000000E+00
  0.00000000E+00  0.00000000E+00  0.00000000E+00
  0.00000000E+00  0.00000000E+00  0.00000000E+00
  0.00000000E+00  0.00000000E+00  0.00000000E+00
  0.00000000E+00  0.00000000E+00  0.00000000E+00
  0.00000000E+00  0.00000000E+00  0.00000000E+00
  0.00000000E+00  0.00000000E+00  0.00000000E+00
  0.00000000E+00  0.00000000E+00  0.00000000E+00
  0.00000000E+00  0.00000000E+00  0.00000000E+00
  0.00000000E+00  0.00000000E+00  0.00000000E+00
  0.00000000E+00  0.00000000E+00  0.00000000E+00
  0.00000000E+00  0.00000000E+00  0.00000000E+00
  0.00000000E+00  0.00000000E+00  0.00000000E+00
  0.00000000E+00  0.00000000E+00  0.00000000E+00
  0.00000000E+00  0.00000000E+00  0.00000000E+00
  0.00000000E+00  0.00000000E+00  0.00000000E+00
  0.00000000E+00  0.00000000E+00  0.00000000E+00
  0.00000000E+00  0.00000000E+00  0.00000000E+00
  0.00000000E+00  0.00000000E+00  0.00000000E+00
  0.00000000E+00  0.00000000E+00  0.00000000E+00
  0.00000000E+00  0.00000000E+00  0.00000000E+00
  0.00000000E+00  0.00000000E+00  0.00000000E+00
  0.00000000E+00  0.00000000E+00  0.00000000E+00
  0.00000000E+00  0.00000000E+00  0.00000000E+00
  0.00000000E+00  0.00000000E+00  0.00000000E+00
  0.00000000E+00  0.00000000E+00  0.00000000E+00
  0.00000000E+00  0.00000000E+00  0.00000000E+00
  0.00000000E+00  0.00000000E+00  0.00000000E+00
  0.00000000E+00  0.00000000E+00  0.00000000E+00
  0.00000000E+00  0.00000000E+00  0.00000000E+00
  0.00000000E+00  0.00000000E+00  0.00000000E+00
  0.00000000E+00  0.00000000E+00  0.00000000E+00
  0.00000000E+00  0.00000000E+00  0.00000000E+00
  0.00000000E+00  0.00000000E+00  0.00000000E+00
  0.00000000E+00  0.00000000E+00  0.00000000E+00
  0.00000000E+00  0.00000000E+00  0.00000000E+00
  0.00000000E+00  0.00000000E+00  0.00000000E+00
  0.00000000E+00  0.00000000E+00  0.00000000E+00
  0.00000000E+00  0.00000000E+00  0.00000000E+00
  0.00000000E+00  0.00000000E+00  0.00000000E+00
  0.00000000E+00  0.00000000E+00  0.00000000E+00
  0.00000000E+00  0.00000000E+00  0.00000000E+00
  0.00000000E+00  0.00000000E+00  0.00000000E+00
  0.00000000E+00  0.00000000E+00  0.00000000E+00
  0.00000000E+00  0.00000000E+00  0.00000000E+00
  0.00000000E+00  0.00000000E+00  0.00000000E+00
  0.00000000E+00  0.00000000E+00  0.00000000E+00
  0.00000000E+00  0.00000000E+00  0.00000000E+00
  0.00000000E+00  0.00000000E+00  0.00000000E+00
  0.00000000E+00  0.00000000E+00  0.00000000E+00
  0.00000000E+00  0.00000000E+00  0.00000000E+00
  0.00000000E+00  0.00000000E+00  0.00000000E+00
  0.00000000E+00  0.00000000E+00  0.00000000E+00
  0.00000000E+00  0.00000000E+00  0.00000000E+00
  0.00000000E+00  0.00000000E+00  0.00000000E+00
  0.00000000E+00  0.00000000E+00  0.00000000E+00
  0.00000000E+00  0.00000000E+00  0.00000000E+00
  0.00000000E+00  0.00000000E+00  0.00000000E+00
  0.00000000E+00  0.00000000E+00  0.00000000E+00
  0.00000000E+00  0.00000000E+00  0.00000000E+00
  0.00000000E+00  0.00000000E+00  0.00000000E+00
  0.00000000E+00  0.00000000E+00  0.00000000E+00
