Mg  O
   1.0000000000000000
     8.5461136257066865    0.0000000000000000    0.0000000000000000
     0.0000000000000000    8.5461136257066865    0.0000000000000000
     0.0000000000000000    0.0000000000000000   21.4095852192800145
   Mg   O
    32    32
Selective dynamics
Direct
  0.0000000000000000  0.7500000000000000  0.3503103830916814   F   F   F
  0.2500000000000000  0.0000000000000000  0.3503103830916814   F   F   F
  0.0000000000000000  0.0000000000000000  0.4501034610305581   F   F   F
  0.2500000000000000  0.7500000000000000  0.4501034610305581   F   F   F
  0.0000000000000000  0.7500000000000000  0.5504230645230491   T   T   T
  0.2500000000000000  0.0000000000000000  0.5504230645230491   T   T   T
 -0.0000000000000000 -0.0000000000000000  0.6496782408961563   T   T   T
  0.2500000000000000  0.7500000000000000  0.6496782408961563   T   T   T
  0.0000000000000000  0.2500000000000000  0.3503103830916814   F   F   F
  0.2500000000000000  0.5000000000000000  0.3503103830916814   F   F   F
  0.0000000000000000  0.5000000000000000  0.4501034610305581   F   F   F
  0.2500000000000000  0.2500000000000000  0.4501034610305581   F   F   F
  0.0000000000000000  0.2500000000000000  0.5504230645230491   T   T   T
  0.2500000000000000  0.5000000000000000  0.5504230645230491   T   T   T
  0.0000000000000000  0.5000000000000000  0.6496782408961563   T   T   T
  0.2500000000000000  0.2500000000000000  0.6496782408961563   T   T   T
  0.5000000000000000  0.7500000000000000  0.3503103830916814   F   F   F
  0.7500000000000000  0.0000000000000000  0.3503103830916814   F   F   F
  0.5000000000000000  0.0000000000000000  0.4501034610305581   F   F   F
  0.7500000000000000  0.7500000000000000  0.4501034610305581   F   F   F
  0.5000000000000000  0.7500000000000000  0.5504230645230491   T   T   T
  0.7500000000000000  0.0000000000000000  0.5504230645230491   T   T   T
  0.5000000000000000 -0.0000000000000000  0.6496782408961563   T   T   T
  0.7500000000000000  0.7500000000000000  0.6496782408961563   T   T   T
  0.5000000000000000  0.2500000000000000  0.3503103830916814   F   F   F
  0.7500000000000000  0.5000000000000000  0.3503103830916814   F   F   F
  0.5000000000000000  0.5000000000000000  0.4501034610305581   F   F   F
  0.7500000000000000  0.2500000000000000  0.4501034610305581   F   F   F
  0.5000000000000000  0.2500000000000000  0.5504230645230491   T   T   T
  0.7500000000000000  0.5000000000000000  0.5504230645230491   T   T   T
  0.5000000000000000  0.5000000000000000  0.6496782408961563   T   T   T
  0.7500000000000000  0.2500000000000000  0.6496782408961563   T   T   T
  0.0000000000000000  0.7500000000000000  0.4501034610305581   F   F   F
  0.2500000000000000  0.0000000000000000  0.4501034610305581   F   F   F
  0.0000000000000000  0.0000000000000000  0.3503103830916814   F   F   F
  0.2500000000000000  0.7500000000000000  0.3503103830916814   F   F   F
 -0.0000000000000000  0.7500000000000000  0.6514899800162499   T   T   T
  0.2500000000000000  0.0000000000000000  0.6514899800162499   T   T   T
 -0.0000000000000000 -0.0000000000000000  0.5501592314376831   T   T   T
  0.2500000000000000  0.7500000000000000  0.5501592314376831   T   T   T
  0.0000000000000000  0.2500000000000000  0.4501034610305581   F   F   F
  0.2500000000000000  0.5000000000000000  0.4501034610305581   F   F   F
  0.0000000000000000  0.5000000000000000  0.3503103830916814   F   F   F
  0.2500000000000000  0.2500000000000000  0.3503103830916814   F   F   F
  0.0000000000000000  0.2500000000000000  0.6514899800162499   T   T   T
  0.2500000000000000  0.5000000000000000  0.6514899800162499   T   T   T
 -0.0000000000000000  0.5000000000000000  0.5501592314376831   T   T   T
  0.2500000000000000  0.2500000000000000  0.5501592314376831   T   T   T
  0.5000000000000000  0.7500000000000000  0.4501034610305581   F   F   F
  0.7500000000000000  0.0000000000000000  0.4501034610305581   F   F   F
  0.5000000000000000  0.0000000000000000  0.3503103830916814   F   F   F
  0.7500000000000000  0.7500000000000000  0.3503103830916814   F   F   F
  0.5000000000000000  0.7500000000000000  0.6514899800162499   T   T   T
  0.7500000000000000 -0.0000000000000000  0.6514899800162499   T   T   T
  0.5000000000000000  0.0000000000000000  0.5501592314376831   T   T   T
  0.7500000000000000  0.7500000000000000  0.5501592314376831   T   T   T
  0.5000000000000000  0.2500000000000000  0.4501034610305581   F   F   F
  0.7500000000000000  0.5000000000000000  0.4501034610305581   F   F   F
  0.5000000000000000  0.5000000000000000  0.3503103830916814   F   F   F
  0.7500000000000000  0.2500000000000000  0.3503103830916814   F   F   F
  0.5000000000000000  0.2500000000000000  0.6514899800162499   T   T   T
  0.7500000000000000  0.5000000000000000  0.6514899800162499   T   T   T
  0.5000000000000000  0.5000000000000000  0.5501592314376831   T   T   T
  0.7500000000000000  0.2500000000000000  0.5501592314376831   T   T   T

  0.00000000E+00  0.00000000E+00  0.00000000E+00
  0.00000000E+00  0.00000000E+00  0.00000000E+00
  0.00000000E+00  0.00000000E+00  0.00000000E+00
  0.00000000E+00  0.00000000E+00  0.00000000E+00
  0.00000000E+00  0.00000000E+00  0.00000000E+00
  0.00000000E+00  0.00000000E+00  0.00000000E+00
  0.00000000E+00  0.00000000E+00  0.00000000E+00
  0.00000000E+00  0.00000000E+00  0.00000000E+00
  0.00000000E+00  0.00000000E+00  0.00000000E+00
  0.00000000E+00  0.00000000E+00  0.00000000E+00
  0.00000000E+00  0.00000000E+00  0.00000000E+00
  0.00000000E+00  0.00000000E+00  0.00000000E+00
  0.00000000E+00  0.00000000E+00  0.00000000E+00
  0.00000000E+00  0.00000000E+00  0.00000000E+00
  0.00000000E+00  0.00000000E+00  0.00000000E+00
  0.00000000E+00  0.00000000E+00  0.00000000E+00
  0.00000000E+00  0.00000000E+00  0.00000000E+00
  0.00000000E+00  0.00000000E+00  0.00000000E+00
  0.00000000E+00  0.00000000E+00  0.00000000E+00
  0.00000000E+00  0.00000000E+00  0.00000000E+00
  0.00000000E+00  0.00000000E+00  0.00000000E+00
  0.00000000E+00  0.00000000E+00  0.00000000E+00
  0.00000000E+00  0.00000000E+00  0.00000000E+00
  0.00000000E+00  0.00000000E+00  0.00000000E+00
  0.00000000E+00  0.00000000E+00  0.00000000E+00
  0.00000000E+00  0.00000000E+00  0.00000000E+00
  0.00000000E+00  0.00000000E+00  0.00000000E+00
  0.00000000E+00  0.00000000E+00  0.00000000E+00
  0.00000000E+00  0.00000000E+00  0.00000000E+00
  0.00000000E+00  0.00000000E+00  0.00000000E+00
  0.00000000E+00  0.00000000E+00  0.00000000E+00
  0.00000000E+00  0.00000000E+00  0.00000000E+00
  0.00000000E+00  0.00000000E+00  0.00000000E+00
  0.00000000E+00  0.00000000E+00  0.00000000E+00
  0.00000000E+00  0.00000000E+00  0.00000000E+00
  0.00000000E+00  0.00000000E+00  0.00000000E+00
  0.00000000E+00  0.00000000E+00  0.00000000E+00
  0.00000000E+00  0.00000000E+00  0.00000000E+00
  0.00000000E+00  0.00000000E+00  0.00000000E+00
  0.00000000E+00  0.00000000E+00  0.00000000E+00
  0.00000000E+00  0.00000000E+00  0.00000000E+00
  0.00000000E+00  0.00000000E+00  0.00000000E+00
  0.00000000E+00  0.00000000E+00  0.00000000E+00
  0.00000000E+00  0.00000000E+00  0.00000000E+00
  0.00000000E+00  0.00000000E+00  0.00000000E+00
  0.00000000E+00  0.00000000E+00  0.00000000E+00
  0.00000000E+00  0.00000000E+00  0.00000000E+00
  0.00000000E+00  0.00000000E+00  0.00000000E+00
  0.00000000E+00  0.00000000E+00  0.00000000E+00
  0.00000000E+00  0.00000000E+00  0.00000000E+00
  0.00000000E+00  0.00000000E+00  0.00000000E+00
  0.00000000E+00  0.00000000E+00  0.00000000E+00
  0.00000000E+00  0.00000000E+00  0.00000000E+00
  0.00000000E+00  0.00000000E+00  0.00000000E+00
  0.00000000E+00  0.00000000E+00  0.00000000E+00
  0.00000000E+00  0.00000000E+00  0.00000000E+00
  0.00000000E+00  0.00000000E+00  0.00000000E+00
  0.00000000E+00  0.00000000E+00  0.00000000E+00
  0.00000000E+00  0.00000000E+00  0.00000000E+00
  0.00000000E+00  0.00000000E+00  0.00000000E+00
  0.00000000E+00  0.00000000E+00  0.00000000E+00
  0.00000000E+00  0.00000000E+00  0.00000000E+00
  0.00000000E+00  0.00000000E+00  0.00000000E+00
  0.00000000E+00  0.00000000E+00  0.00000000E+00
