 C  O Mg  O
   1.0000000000000000
     8.3491118265846538    0.0000000000000000    0.0000000000000000
     0.0000000000000000    8.3491118265846538    0.0000000000000000
     0.0000000000000000    0.0000000000000000   21.2618338699384921
   C    O    Mg   O
     1     1    32    32
Selective dynamics
Direct
  0.5000000000000000  0.5000000000000000  0.7659506448099630   T   T   T
  0.5000000000000000  0.5000000000000000  0.8190881482812261   T   T   T
  0.2500000000000000  0.0000000000000000  0.3527447371604211   F   F   F
  0.5000000000000000  0.2500000000000000  0.3527447371604211   F   F   F
  0.2500000000000000  0.2500000000000000  0.4509149123868070   F   F   F
  0.5000000000000000  0.0000000000000000  0.4509149123868070   F   F   F
  0.2501267067785615 -0.0000000000000000  0.5496065195950743   T   T   T
  0.5000000000000000  0.2503852082063638  0.5498489818870612   T   T   T
  0.2497823058044276  0.2497823058044276  0.6470544437982608   T   T   T
  0.5000000000000000 -0.0000000000000000  0.6471284611378952   T   T   T
  0.2500000000000000  0.5000000000000000  0.3527447371604211   F   F   F
  0.5000000000000000  0.7500000000000000  0.3527447371604211   F   F   F
  0.2500000000000000  0.7500000000000000  0.4509149123868070   F   F   F
  0.5000000000000000  0.5000000000000000  0.4509149123868070   F   F   F
  0.2503852082063638  0.5000000000000000  0.5498489818870612   T   T   T
  0.5000000000000000  0.7496147917936367  0.5498489818870612   T   T   T
  0.2497823058044276  0.7502176941955726  0.6470544437982608   T   T   T
  0.5000000000000000  0.5000000000000000  0.6494765212782295   T   T   T
  0.7500000000000000  0.0000000000000000  0.3527447371604211   F   F   F
  0.0000000000000000  0.2500000000000000  0.3527447371604211   F   F   F
  0.7500000000000000  0.2500000000000000  0.4509149123868070   F   F   F
  0.0000000000000000  0.0000000000000000  0.4509149123868070   F   F   F
  0.7498732932214379 -0.0000000000000000  0.5496065195950743   T   T   T
  0.0000000000000000  0.2501267067785615  0.5496065195950743   T   T   T
  0.7502176941955726  0.2497823058044276  0.6470544437982608   T   T   T
  0.0000000000000000 -0.0000000000000000  0.6471445672948062   T   T   T
  0.7500000000000000  0.5000000000000000  0.3527447371604211   F   F   F
  0.0000000000000000  0.7500000000000000  0.3527447371604211   F   F   F
  0.7500000000000000  0.7500000000000000  0.4509149123868070   F   F   F
  0.0000000000000000  0.5000000000000000  0.4509149123868070   F   F   F
  0.7496147917936367  0.5000000000000000  0.5498489818870612   T   T   T
  0.0000000000000000  0.7498732932214379  0.5496065195950743   T   T   T
  0.7502176941955726  0.7502176941955726  0.6470544437982608   T   T   T
  0.0000000000000000  0.5000000000000000  0.6471284611378952   T   T   T
  0.2500000000000000  0.0000000000000000  0.4509149123868070   F   F   F
  0.5000000000000000  0.2500000000000000  0.4509149123868070   F   F   F
  0.2500000000000000  0.2500000000000000  0.3527447371604211   F   F   F
  0.5000000000000000  0.0000000000000000  0.3527447371604211   F   F   F
  0.2497774126919207 -0.0000000000000000  0.6495146196605738   T   T   T
  0.5000000000000000  0.2488441208390895  0.6496197077455793   T   T   T
  0.2500050842055103  0.2500050842055103  0.5493985519540850   T   T   T
  0.5000000000000000 -0.0000000000000000  0.5493339446193974   T   T   T
  0.2500000000000000  0.5000000000000000  0.4509149123868070   F   F   F
  0.5000000000000000  0.7500000000000000  0.4509149123868070   F   F   F
  0.2500000000000000  0.7500000000000000  0.3527447371604211   F   F   F
  0.5000000000000000  0.5000000000000000  0.3527447371604211   F   F   F
  0.2488441208390895  0.5000000000000000  0.6496197077455793   T   T   T
  0.5000000000000000  0.7511558791609108  0.6496197077455793   T   T   T
  0.2500050842055103  0.7499949157944896  0.5493985519540850   T   T   T
  0.5000000000000000  0.5000000000000000  0.5498625865784426   T   T   T
  0.7500000000000000  0.0000000000000000  0.4509149123868070   F   F   F
  0.0000000000000000  0.2500000000000000  0.4509149123868070   F   F   F
  0.7500000000000000  0.2500000000000000  0.3527447371604211   F   F   F
  0.0000000000000000  0.0000000000000000  0.3527447371604211   F   F   F
  0.7502225873080788 -0.0000000000000000  0.6495146196605738   T   T   T
  0.0000000000000000  0.2497774126919207  0.6495146196605738   T   T   T
  0.7499949157944896  0.2500050842055103  0.5493985519540850   T   T   T
  0.0000000000000000 -0.0000000000000000  0.5493130745710216   T   T   T
  0.7500000000000000  0.5000000000000000  0.4509149123868070   F   F   F
  0.0000000000000000  0.7500000000000000  0.4509149123868070   F   F   F
  0.7500000000000000  0.7500000000000000  0.3527447371604211   F   F   F
  0.0000000000000000  0.5000000000000000  0.3527447371604211   F   F   F
  0.7511558791609108  0.5000000000000000  0.6496197077455793   T   T   T
  0.0000000000000000  0.7502225873080788  0.6495146196605738   T   T   T
  0.7499949157944896  0.7499949157944896  0.5493985519540850   T   T   T
  0.0000000000000000  0.5000000000000000  0.5493339446193974   T   T   T

  0.00000000E+00  0.00000000E+00  0.00000000E+00
  0.00000000E+00  0.00000000E+00  0.00000000E+00
  0.00000000E+00  0.00000000E+00  0.00000000E+00
  0.00000000E+00  0.00000000E+00  0.00000000E+00
  0.00000000E+00  0.00000000E+00  0.00000000E+00
  0.00000000E+00  0.00000000E+00  0.00000000E+00
  0.00000000E+00  0.00000000E+00  0.00000000E+00
  0.00000000E+00  0.00000000E+00  0.00000000E+00
  0.00000000E+00  0.00000000E+00  0.00000000E+00
  0.00000000E+00  0.00000000E+00  0.00000000E+00
  0.00000000E+00  0.00000000E+00  0.00000000E+00
  0.00000000E+00  0.00000000E+00  0.00000000E+00
  0.00000000E+00  0.00000000E+00  0.00000000E+00
  0.00000000E+00  0.00000000E+00  0.00000000E+00
  0.00000000E+00  0.00000000E+00  0.00000000E+00
  0.00000000E+00  0.00000000E+00  0.00000000E+00
  0.00000000E+00  0.00000000E+00  0.00000000E+00
  0.00000000E+00  0.00000000E+00  0.00000000E+00
  0.00000000E+00  0.00000000E+00  0.00000000E+00
  0.00000000E+00  0.00000000E+00  0.00000000E+00
  0.00000000E+00  0.00000000E+00  0.00000000E+00
  0.00000000E+00  0.00000000E+00  0.00000000E+00
  0.00000000E+00  0.00000000E+00  0.00000000E+00
  0.00000000E+00  0.00000000E+00  0.00000000E+00
  0.00000000E+00  0.00000000E+00  0.00000000E+00
  0.00000000E+00  0.00000000E+00  0.00000000E+00
  0.00000000E+00  0.00000000E+00  0.00000000E+00
  0.00000000E+00  0.00000000E+00  0.00000000E+00
  0.00000000E+00  0.00000000E+00  0.00000000E+00
  0.00000000E+00  0.00000000E+00  0.00000000E+00
  0.00000000E+00  0.00000000E+00  0.00000000E+00
  0.00000000E+00  0.00000000E+00  0.00000000E+00
  0.00000000E+00  0.00000000E+00  0.00000000E+00
  0.00000000E+00  0.00000000E+00  0.00000000E+00
  0.00000000E+00  0.00000000E+00  0.00000000E+00
  0.00000000E+00  0.00000000E+00  0.00000000E+00
  0.00000000E+00  0.00000000E+00  0.00000000E+00
  0.00000000E+00  0.00000000E+00  0.00000000E+00
  0.00000000E+00  0.00000000E+00  0.00000000E+00
  0.00000000E+00  0.00000000E+00  0.00000000E+00
  0.00000000E+00  0.00000000E+00  0.00000000E+00
  0.00000000E+00  0.00000000E+00  0.00000000E+00
  0.00000000E+00  0.00000000E+00  0.00000000E+00
  0.00000000E+00  0.00000000E+00  0.00000000E+00
  0.00000000E+00  0.00000000E+00  0.00000000E+00
  0.00000000E+00  0.00000000E+00  0.00000000E+00
  0.00000000E+00  0.00000000E+00  0.00000000E+00
  0.00000000E+00  0.00000000E+00  0.00000000E+00
  0.00000000E+00  0.00000000E+00  0.00000000E+00
  0.00000000E+00  0.00000000E+00  0.00000000E+00
  0.00000000E+00  0.00000000E+00  0.00000000E+00
  0.00000000E+00  0.00000000E+00  0.00000000E+00
  0.00000000E+00  0.00000000E+00  0.00000000E+00
  0.00000000E+00  0.00000000E+00  0.00000000E+00
  0.00000000E+00  0.00000000E+00  0.00000000E+00
  0.00000000E+00  0.00000000E+00  0.00000000E+00
  0.00000000E+00  0.00000000E+00  0.00000000E+00
  0.00000000E+00  0.00000000E+00  0.00000000E+00
  0.00000000E+00  0.00000000E+00  0.00000000E+00
  0.00000000E+00  0.00000000E+00  0.00000000E+00
  0.00000000E+00  0.00000000E+00  0.00000000E+00
  0.00000000E+00  0.00000000E+00  0.00000000E+00
  0.00000000E+00  0.00000000E+00  0.00000000E+00
  0.00000000E+00  0.00000000E+00  0.00000000E+00
  0.00000000E+00  0.00000000E+00  0.00000000E+00
  0.00000000E+00  0.00000000E+00  0.00000000E+00
