 C  O
 1.0000000000000000
    20.0000000000000000    0.0000000000000000    0.0000000000000000
     0.0000000000000000   20.0000000000000000    0.0000000000000000
     0.0000000000000000    0.0000000000000000   21.1263282871317877
   C   O
   1   1
Direct
  0.5000000000000000  0.5000000000000000  0.4729497546018525
  0.5000000000000000  0.5000000000000000  0.5270502453981475
