 C  O                                   
   1.0000000000000000     
    20.0000000000000000    0.0000000000000000    0.0000000000000000
     0.0000000000000000   20.0000000000000000    0.0000000000000000
     0.0000000000000000    0.0000000000000000   21.1263282871317877
   C    O 
     1     1
Direct
  0.5000000000000000  0.5000000000000000  0.4732330052528266
  0.5000000000000000  0.5000000000000000  0.5267669947471734

  0.00000000E+00  0.00000000E+00  0.00000000E+00
  0.00000000E+00  0.00000000E+00  0.00000000E+00
