SYSTEM=MgO-rocksalt
ISMEAR=0
SIGMA=0.05
EDIFF=5E-7
ALGO=ALL
ISTART=0
IBRION=2
NSW=200
EDIFFG=-0.005
ISIF=2
ISYM=2

DIPOL=0.5 0.5 0.5
IDIPOL = 4
LDIPOL = .TRUE.


GGA=PE
IVDW=1
VDW_C6=1.75 0.70
VDW_R0=1.452 1.342


ENCUT=600
PREC=Accurate  #default (Normal) usually safe, structures/energies change little with Accurate
LASPH=.TRUE.
LREAL=.FALSE.
ISPIN=1
NELM=200
NELMIN=8
NCORE=4
KPAR=2

LWAVE=.FALSE.
LCHARG=.FALSE.
