 C  O Mg  O
   1.0000000000000000
     8.5461136257066865    0.0000000000000000    0.0000000000000000
     0.0000000000000000    8.5461136257066865    0.0000000000000000
     0.0000000000000000    0.0000000000000000   21.4095852192800145
   C    O    Mg   O
     1     1    32    32
Selective dynamics
Direct
  0.5000000000000000  0.5000000000000000  0.7687364163228276   T   T   T
  0.5000000000000000  0.5000000000000000  0.8222108926077336   T   T   T
  0.0000000000000000  0.7500000000000000  0.3503103830916814   F   F   F
  0.2500000000000000  0.0000000000000000  0.3503103830916814   F   F   F
  0.0000000000000000  0.0000000000000000  0.4501034610305581   F   F   F
  0.2500000000000000  0.7500000000000000  0.4501034610305581   F   F   F
 -0.0000000000000000  0.7499111023110628  0.5502566250119479   T   T   T
  0.2500888976889374  0.0000000000000000  0.5502566250119479   T   T   T
 -0.0000000000000000  0.0000000000000000  0.6495485727801420   T   T   T
  0.2496257608414496  0.7503742391585505  0.6492585083079370   T   T   T
  0.0000000000000000  0.2500000000000000  0.3503103830916814   F   F   F
  0.2500000000000000  0.5000000000000000  0.3503103830916814   F   F   F
  0.0000000000000000  0.5000000000000000  0.4501034610305581   F   F   F
  0.2500000000000000  0.2500000000000000  0.4501034610305581   F   F   F
 -0.0000000000000000  0.2500888976889374  0.5502566250119479   T   T   T
  0.2505184554878004  0.5000000000000000  0.5505553430722844   T   T   T
 -0.0000000000000000  0.5000000000000000  0.6494243026785076   T   T   T
  0.2496257608414496  0.2496257608414496  0.6492585083079370   T   T   T
  0.5000000000000000  0.7500000000000000  0.3503103830916814   F   F   F
  0.7500000000000000  0.0000000000000000  0.3503103830916814   F   F   F
  0.5000000000000000  0.0000000000000000  0.4501034610305581   F   F   F
  0.7500000000000000  0.7500000000000000  0.4501034610305581   F   F   F
  0.5000000000000000  0.7494815445121996  0.5505553430722844   T   T   T
  0.7499111023110628  0.0000000000000000  0.5502566250119479   T   T   T
  0.5000000000000000  0.0000000000000000  0.6494243026785076   T   T   T
  0.7503742391585505  0.7503742391585505  0.6492585083079370   T   T   T
  0.5000000000000000  0.2500000000000000  0.3503103830916814   F   F   F
  0.7500000000000000  0.5000000000000000  0.3503103830916814   F   F   F
  0.5000000000000000  0.5000000000000000  0.4501034610305581   F   F   F
  0.7500000000000000  0.2500000000000000  0.4501034610305581   F   F   F
  0.5000000000000000  0.2505184554878004  0.5505553430722844   T   T   T
  0.7494815445121996  0.5000000000000000  0.5505553430722844   T   T   T
  0.5000000000000000  0.5000000000000000  0.6521877869729810   T   T   T
  0.7503742391585505  0.2496257608414496  0.6492585083079370   T   T   T
  0.0000000000000000  0.7500000000000000  0.4501034610305581   F   F   F
  0.2500000000000000  0.0000000000000000  0.4501034610305581   F   F   F
  0.0000000000000000  0.0000000000000000  0.3503103830916814   F   F   F
  0.2500000000000000  0.7500000000000000  0.3503103830916814   F   F   F
 -0.0000000000000000  0.7502997110811768  0.6514477143047080   T   T   T
  0.2497002889188233  0.0000000000000000  0.6514477143047080   T   T   T
 -0.0000000000000000  0.0000000000000000  0.5500547067736526   T   T   T
  0.2499415150482551  0.7500584849517448  0.5501049330919908   T   T   T
  0.0000000000000000  0.2500000000000000  0.4501034610305581   F   F   F
  0.2500000000000000  0.5000000000000000  0.4501034610305581   F   F   F
  0.0000000000000000  0.5000000000000000  0.3503103830916814   F   F   F
  0.2500000000000000  0.2500000000000000  0.3503103830916814   F   F   F
 -0.0000000000000000  0.2497002889188233  0.6514477143047080   T   T   T
  0.2487434275073470  0.5000000000000000  0.6514719899802076   T   T   T
 -0.0000000000000000  0.5000000000000000  0.5500397408821273   T   T   T
  0.2499415150482551  0.2499415150482551  0.5501049330919908   T   T   T
  0.5000000000000000  0.7500000000000000  0.4501034610305581   F   F   F
  0.7500000000000000  0.0000000000000000  0.4501034610305581   F   F   F
  0.5000000000000000  0.0000000000000000  0.3503103830916814   F   F   F
  0.7500000000000000  0.7500000000000000  0.3503103830916814   F   F   F
  0.5000000000000000  0.7512565724926525  0.6514719899802076   T   T   T
  0.7502997110811768  0.0000000000000000  0.6514477143047080   T   T   T
  0.5000000000000000  0.0000000000000000  0.5500397408821273   T   T   T
  0.7500584849517448  0.7500584849517448  0.5501049330919908   T   T   T
  0.5000000000000000  0.2500000000000000  0.4501034610305581   F   F   F
  0.7500000000000000  0.5000000000000000  0.4501034610305581   F   F   F
  0.5000000000000000  0.5000000000000000  0.3503103830916814   F   F   F
  0.7500000000000000  0.2500000000000000  0.3503103830916814   F   F   F
  0.5000000000000000  0.2487434275073470  0.6514719899802076   T   T   T
  0.7512565724926525  0.5000000000000000  0.6514719899802076   T   T   T
  0.5000000000000000  0.5000000000000000  0.5505684499862253   T   T   T
  0.7500584849517448  0.2499415150482551  0.5501049330919908   T   T   T

  0.00000000E+00  0.00000000E+00  0.00000000E+00
  0.00000000E+00  0.00000000E+00  0.00000000E+00
  0.00000000E+00  0.00000000E+00  0.00000000E+00
  0.00000000E+00  0.00000000E+00  0.00000000E+00
  0.00000000E+00  0.00000000E+00  0.00000000E+00
  0.00000000E+00  0.00000000E+00  0.00000000E+00
  0.00000000E+00  0.00000000E+00  0.00000000E+00
  0.00000000E+00  0.00000000E+00  0.00000000E+00
  0.00000000E+00  0.00000000E+00  0.00000000E+00
  0.00000000E+00  0.00000000E+00  0.00000000E+00
  0.00000000E+00  0.00000000E+00  0.00000000E+00
  0.00000000E+00  0.00000000E+00  0.00000000E+00
  0.00000000E+00  0.00000000E+00  0.00000000E+00
  0.00000000E+00  0.00000000E+00  0.00000000E+00
  0.00000000E+00  0.00000000E+00  0.00000000E+00
  0.00000000E+00  0.00000000E+00  0.00000000E+00
  0.00000000E+00  0.00000000E+00  0.00000000E+00
  0.00000000E+00  0.00000000E+00  0.00000000E+00
  0.00000000E+00  0.00000000E+00  0.00000000E+00
  0.00000000E+00  0.00000000E+00  0.00000000E+00
  0.00000000E+00  0.00000000E+00  0.00000000E+00
  0.00000000E+00  0.00000000E+00  0.00000000E+00
  0.00000000E+00  0.00000000E+00  0.00000000E+00
  0.00000000E+00  0.00000000E+00  0.00000000E+00
  0.00000000E+00  0.00000000E+00  0.00000000E+00
  0.00000000E+00  0.00000000E+00  0.00000000E+00
  0.00000000E+00  0.00000000E+00  0.00000000E+00
  0.00000000E+00  0.00000000E+00  0.00000000E+00
  0.00000000E+00  0.00000000E+00  0.00000000E+00
  0.00000000E+00  0.00000000E+00  0.00000000E+00
  0.00000000E+00  0.00000000E+00  0.00000000E+00
  0.00000000E+00  0.00000000E+00  0.00000000E+00
  0.00000000E+00  0.00000000E+00  0.00000000E+00
  0.00000000E+00  0.00000000E+00  0.00000000E+00
  0.00000000E+00  0.00000000E+00  0.00000000E+00
  0.00000000E+00  0.00000000E+00  0.00000000E+00
  0.00000000E+00  0.00000000E+00  0.00000000E+00
  0.00000000E+00  0.00000000E+00  0.00000000E+00
  0.00000000E+00  0.00000000E+00  0.00000000E+00
  0.00000000E+00  0.00000000E+00  0.00000000E+00
  0.00000000E+00  0.00000000E+00  0.00000000E+00
  0.00000000E+00  0.00000000E+00  0.00000000E+00
  0.00000000E+00  0.00000000E+00  0.00000000E+00
  0.00000000E+00  0.00000000E+00  0.00000000E+00
  0.00000000E+00  0.00000000E+00  0.00000000E+00
  0.00000000E+00  0.00000000E+00  0.00000000E+00
  0.00000000E+00  0.00000000E+00  0.00000000E+00
  0.00000000E+00  0.00000000E+00  0.00000000E+00
  0.00000000E+00  0.00000000E+00  0.00000000E+00
  0.00000000E+00  0.00000000E+00  0.00000000E+00
  0.00000000E+00  0.00000000E+00  0.00000000E+00
  0.00000000E+00  0.00000000E+00  0.00000000E+00
  0.00000000E+00  0.00000000E+00  0.00000000E+00
  0.00000000E+00  0.00000000E+00  0.00000000E+00
  0.00000000E+00  0.00000000E+00  0.00000000E+00
  0.00000000E+00  0.00000000E+00  0.00000000E+00
  0.00000000E+00  0.00000000E+00  0.00000000E+00
  0.00000000E+00  0.00000000E+00  0.00000000E+00
  0.00000000E+00  0.00000000E+00  0.00000000E+00
  0.00000000E+00  0.00000000E+00  0.00000000E+00
  0.00000000E+00  0.00000000E+00  0.00000000E+00
  0.00000000E+00  0.00000000E+00  0.00000000E+00
  0.00000000E+00  0.00000000E+00  0.00000000E+00
  0.00000000E+00  0.00000000E+00  0.00000000E+00
  0.00000000E+00  0.00000000E+00  0.00000000E+00
  0.00000000E+00  0.00000000E+00  0.00000000E+00
