 C  O Mg  O                             
   1.0000000000000000     
     8.4671426306338464    0.0000000000000000    0.0000000000000000
     0.0000000000000000    8.4671426306338464    0.0000000000000000
     0.0000000000000000    0.0000000000000000   21.3503569729753835
   C    O    Mg   O 
     1     1    32    32
Selective dynamics
Direct
  0.5000000000000000  0.5000000000000000  0.7640797711383173   T   T   T
  0.5000000000000000  0.5000000000000000  0.8176356786017435   T   T   T
  0.2500000000000000  0.0000000000000000  0.3512821827519446   F   F   F
  0.5000000000000000  0.2500000000000000  0.3512821827519446   F   F   F
  0.2500000000000000  0.2500000000000000  0.4504273942506458   F   F   F
  0.5000000000000000  0.0000000000000000  0.4504273942506458   F   F   F
  0.2501306753463673 -0.0000000000000000  0.5500510249057364   T   T   T
  0.5000000000000000  0.2505493737078574  0.5503373608491315   T   T   T
  0.2496647253730508  0.2496647253730508  0.6482330618719836   T   T   T
  0.5000000000000000 -0.0000000000000000  0.6483273150504606   T   T   T
  0.2500000000000000  0.5000000000000000  0.3512821827519446   F   F   F
  0.5000000000000000  0.7500000000000000  0.3512821827519446   F   F   F
  0.2500000000000000  0.7500000000000000  0.4504273942506458   F   F   F
  0.5000000000000000  0.5000000000000000  0.4504273942506458   F   F   F
  0.2505493737078574  0.5000000000000000  0.5503373608491315   T   T   T
  0.5000000000000000  0.7494506262921421  0.5503373608491315   T   T   T
  0.2496647253730508  0.7503352746269498  0.6482330618719836   T   T   T
  0.5000000000000000  0.5000000000000000  0.6510258837469104   T   T   T
  0.7500000000000000  0.0000000000000000  0.3512821827519446   F   F   F
  0.0000000000000000  0.2500000000000000  0.3512821827519446   F   F   F
  0.7500000000000000  0.2500000000000000  0.4504273942506458   F   F   F
  0.0000000000000000  0.0000000000000000  0.4504273942506458   F   F   F
  0.7498693246536324 -0.0000000000000000  0.5500510249057364   T   T   T
 -0.0000000000000000  0.2501306753463673  0.5500510249057364   T   T   T
  0.7503352746269498  0.2496647253730508  0.6482330618719836   T   T   T
 -0.0000000000000000 -0.0000000000000000  0.6483162398926687   T   T   T
  0.7500000000000000  0.5000000000000000  0.3512821827519446   F   F   F
  0.0000000000000000  0.7500000000000000  0.3512821827519446   F   F   F
  0.7500000000000000  0.7500000000000000  0.4504273942506458   F   F   F
  0.0000000000000000  0.5000000000000000  0.4504273942506458   F   F   F
  0.7494506262921421  0.5000000000000000  0.5503373608491315   T   T   T
 -0.0000000000000000  0.7498693246536324  0.5500510249057364   T   T   T
  0.7503352746269498  0.7503352746269498  0.6482330618719836   T   T   T
 -0.0000000000000000  0.5000000000000000  0.6483273150504606   T   T   T
  0.2500000000000000  0.0000000000000000  0.4504273942506458   F   F   F
  0.5000000000000000  0.2500000000000000  0.4504273942506458   F   F   F
  0.2500000000000000  0.2500000000000000  0.3512821827519446   F   F   F
  0.5000000000000000  0.0000000000000000  0.3512821827519446   F   F   F
  0.2496759693539971 -0.0000000000000000  0.6506937572964586   T   T   T
  0.5000000000000000  0.2486163738071992  0.6508748729821731   T   T   T
  0.2499956259731924  0.2499956259731924  0.5498150196317203   T   T   T
  0.5000000000000000 -0.0000000000000000  0.5497436581489166   T   T   T
  0.2500000000000000  0.5000000000000000  0.4504273942506458   F   F   F
  0.5000000000000000  0.7500000000000000  0.4504273942506458   F   F   F
  0.2500000000000000  0.7500000000000000  0.3512821827519446   F   F   F
  0.5000000000000000  0.5000000000000000  0.3512821827519446   F   F   F
  0.2486163738071992  0.5000000000000000  0.6508748729821731   T   T   T
  0.5000000000000000  0.7513836261928010  0.6508748729821731   T   T   T
  0.2499956259731924  0.7500043740268080  0.5498150196317203   T   T   T
  0.5000000000000000  0.5000000000000000  0.5503614077606921   T   T   T
  0.7500000000000000  0.0000000000000000  0.4504273942506458   F   F   F
  0.0000000000000000  0.2500000000000000  0.4504273942506458   F   F   F
  0.7500000000000000  0.2500000000000000  0.3512821827519446   F   F   F
  0.0000000000000000  0.0000000000000000  0.3512821827519446   F   F   F
  0.7503240306460027 -0.0000000000000000  0.6506937572964586   T   T   T
 -0.0000000000000000  0.2496759693539971  0.6506937572964586   T   T   T
  0.7500043740268080  0.2499956259731924  0.5498150196317203   T   T   T
 -0.0000000000000000 -0.0000000000000000  0.5497108767813476   T   T   T
  0.7500000000000000  0.5000000000000000  0.4504273942506458   F   F   F
  0.0000000000000000  0.7500000000000000  0.4504273942506458   F   F   F
  0.7500000000000000  0.7500000000000000  0.3512821827519446   F   F   F
  0.0000000000000000  0.5000000000000000  0.3512821827519446   F   F   F
  0.7513836261928010  0.5000000000000000  0.6508748729821731   T   T   T
 -0.0000000000000000  0.7503240306460027  0.6506937572964586   T   T   T
  0.7500043740268080  0.7500043740268080  0.5498150196317203   T   T   T
 -0.0000000000000000  0.5000000000000000  0.5497436581489166   T   T   T

  0.00000000E+00  0.00000000E+00  0.00000000E+00
  0.00000000E+00  0.00000000E+00  0.00000000E+00
  0.00000000E+00  0.00000000E+00  0.00000000E+00
  0.00000000E+00  0.00000000E+00  0.00000000E+00
  0.00000000E+00  0.00000000E+00  0.00000000E+00
  0.00000000E+00  0.00000000E+00  0.00000000E+00
  0.00000000E+00  0.00000000E+00  0.00000000E+00
  0.00000000E+00  0.00000000E+00  0.00000000E+00
  0.00000000E+00  0.00000000E+00  0.00000000E+00
  0.00000000E+00  0.00000000E+00  0.00000000E+00
  0.00000000E+00  0.00000000E+00  0.00000000E+00
  0.00000000E+00  0.00000000E+00  0.00000000E+00
  0.00000000E+00  0.00000000E+00  0.00000000E+00
  0.00000000E+00  0.00000000E+00  0.00000000E+00
  0.00000000E+00  0.00000000E+00  0.00000000E+00
  0.00000000E+00  0.00000000E+00  0.00000000E+00
  0.00000000E+00  0.00000000E+00  0.00000000E+00
  0.00000000E+00  0.00000000E+00  0.00000000E+00
  0.00000000E+00  0.00000000E+00  0.00000000E+00
  0.00000000E+00  0.00000000E+00  0.00000000E+00
  0.00000000E+00  0.00000000E+00  0.00000000E+00
  0.00000000E+00  0.00000000E+00  0.00000000E+00
  0.00000000E+00  0.00000000E+00  0.00000000E+00
  0.00000000E+00  0.00000000E+00  0.00000000E+00
  0.00000000E+00  0.00000000E+00  0.00000000E+00
  0.00000000E+00  0.00000000E+00  0.00000000E+00
  0.00000000E+00  0.00000000E+00  0.00000000E+00
  0.00000000E+00  0.00000000E+00  0.00000000E+00
  0.00000000E+00  0.00000000E+00  0.00000000E+00
  0.00000000E+00  0.00000000E+00  0.00000000E+00
  0.00000000E+00  0.00000000E+00  0.00000000E+00
  0.00000000E+00  0.00000000E+00  0.00000000E+00
  0.00000000E+00  0.00000000E+00  0.00000000E+00
  0.00000000E+00  0.00000000E+00  0.00000000E+00
  0.00000000E+00  0.00000000E+00  0.00000000E+00
  0.00000000E+00  0.00000000E+00  0.00000000E+00
  0.00000000E+00  0.00000000E+00  0.00000000E+00
  0.00000000E+00  0.00000000E+00  0.00000000E+00
  0.00000000E+00  0.00000000E+00  0.00000000E+00
  0.00000000E+00  0.00000000E+00  0.00000000E+00
  0.00000000E+00  0.00000000E+00  0.00000000E+00
  0.00000000E+00  0.00000000E+00  0.00000000E+00
  0.00000000E+00  0.00000000E+00  0.00000000E+00
  0.00000000E+00  0.00000000E+00  0.00000000E+00
  0.00000000E+00  0.00000000E+00  0.00000000E+00
  0.00000000E+00  0.00000000E+00  0.00000000E+00
  0.00000000E+00  0.00000000E+00  0.00000000E+00
  0.00000000E+00  0.00000000E+00  0.00000000E+00
  0.00000000E+00  0.00000000E+00  0.00000000E+00
  0.00000000E+00  0.00000000E+00  0.00000000E+00
  0.00000000E+00  0.00000000E+00  0.00000000E+00
  0.00000000E+00  0.00000000E+00  0.00000000E+00
  0.00000000E+00  0.00000000E+00  0.00000000E+00
  0.00000000E+00  0.00000000E+00  0.00000000E+00
  0.00000000E+00  0.00000000E+00  0.00000000E+00
  0.00000000E+00  0.00000000E+00  0.00000000E+00
  0.00000000E+00  0.00000000E+00  0.00000000E+00
  0.00000000E+00  0.00000000E+00  0.00000000E+00
  0.00000000E+00  0.00000000E+00  0.00000000E+00
  0.00000000E+00  0.00000000E+00  0.00000000E+00
  0.00000000E+00  0.00000000E+00  0.00000000E+00
  0.00000000E+00  0.00000000E+00  0.00000000E+00
  0.00000000E+00  0.00000000E+00  0.00000000E+00
  0.00000000E+00  0.00000000E+00  0.00000000E+00
  0.00000000E+00  0.00000000E+00  0.00000000E+00
  0.00000000E+00  0.00000000E+00  0.00000000E+00
