Mg  O
   1.0000000000000000
     8.4405822620844617    0.0000000000000000    0.0000000000000000
     0.0000000000000000    8.4405822620844617    0.0000000000000000
     0.0000000000000000    0.0000000000000000   21.3304366965633463
   Mg   O
    32    32
Selective dynamics
Direct
  0.2500000000000000  0.0000000000000000  0.3516102415853695   F   F   F
  0.5000000000000000  0.2500000000000000  0.3516102415853695   F   F   F
  0.2500000000000000  0.2500000000000000  0.4505367471951232   F   F   F
  0.5000000000000000  0.0000000000000000  0.4505367471951232   F   F   F
  0.2500000000000000  0.0000000000000000  0.5499663824358410   T   T   T
  0.5000000000000000  0.2500000000000000  0.5499663824358410   T   T   T
  0.2500000000000000  0.2500000000000000  0.6483483588863611   T   T   T
  0.5000000000000000  0.0000000000000000  0.6483483588863611   T   T   T
  0.2500000000000000  0.5000000000000000  0.3516102415853695   F   F   F
  0.5000000000000000  0.7500000000000000  0.3516102415853695   F   F   F
  0.2500000000000000  0.7500000000000000  0.4505367471951232   F   F   F
  0.5000000000000000  0.5000000000000000  0.4505367471951232   F   F   F
  0.2500000000000000  0.5000000000000000  0.5499663824358410   T   T   T
  0.5000000000000000  0.7500000000000000  0.5499663824358410   T   T   T
  0.2500000000000000  0.7500000000000000  0.6483483588863611   T   T   T
  0.5000000000000000  0.5000000000000000  0.6483483588863611   T   T   T
  0.7500000000000000  0.0000000000000000  0.3516102415853695   F   F   F
  0.0000000000000000  0.2500000000000000  0.3516102415853695   F   F   F
  0.7500000000000000  0.2500000000000000  0.4505367471951232   F   F   F
  0.0000000000000000  0.0000000000000000  0.4505367471951232   F   F   F
  0.7500000000000000  0.0000000000000000  0.5499663824358410   T   T   T
 -0.0000000000000000  0.2500000000000000  0.5499663824358410   T   T   T
  0.7500000000000000  0.2500000000000000  0.6483483588863611   T   T   T
  0.0000000000000000 -0.0000000000000000  0.6483483588863611   T   T   T
  0.7500000000000000  0.5000000000000000  0.3516102415853695   F   F   F
  0.0000000000000000  0.7500000000000000  0.3516102415853695   F   F   F
  0.7500000000000000  0.7500000000000000  0.4505367471951232   F   F   F
  0.0000000000000000  0.5000000000000000  0.4505367471951232   F   F   F
  0.7500000000000000  0.5000000000000000  0.5499663824358410   T   T   T
 -0.0000000000000000  0.7500000000000000  0.5499663824358410   T   T   T
  0.7500000000000000  0.7500000000000000  0.6483483588863611   T   T   T
  0.0000000000000000  0.5000000000000000  0.6483483588863611   T   T   T
  0.2500000000000000  0.0000000000000000  0.4505367471951232   F   F   F
  0.5000000000000000  0.2500000000000000  0.4505367471951232   F   F   F
  0.2500000000000000  0.2500000000000000  0.3516102415853695   F   F   F
  0.5000000000000000  0.0000000000000000  0.3516102415853695   F   F   F
  0.2500000000000000 -0.0000000000000000  0.6501775057681134   T   T   T
  0.5000000000000000  0.2500000000000000  0.6501775057681134   T   T   T
  0.2500000000000000  0.2500000000000000  0.5497073393679552   T   T   T
  0.5000000000000000 -0.0000000000000000  0.5497073393679552   T   T   T
  0.2500000000000000  0.5000000000000000  0.4505367471951232   F   F   F
  0.5000000000000000  0.7500000000000000  0.4505367471951232   F   F   F
  0.2500000000000000  0.7500000000000000  0.3516102415853695   F   F   F
  0.5000000000000000  0.5000000000000000  0.3516102415853695   F   F   F
  0.2500000000000000  0.5000000000000000  0.6501775057681134   T   T   T
  0.5000000000000000  0.7500000000000000  0.6501775057681134   T   T   T
  0.2500000000000000  0.7500000000000000  0.5497073393679552   T   T   T
  0.5000000000000000  0.5000000000000000  0.5497073393679552   T   T   T
  0.7500000000000000  0.0000000000000000  0.4505367471951232   F   F   F
  0.0000000000000000  0.2500000000000000  0.4505367471951232   F   F   F
  0.7500000000000000  0.2500000000000000  0.3516102415853695   F   F   F
  0.0000000000000000  0.0000000000000000  0.3516102415853695   F   F   F
  0.7500000000000000 -0.0000000000000000  0.6501775057681134   T   T   T
  0.0000000000000000  0.2500000000000000  0.6501775057681134   T   T   T
  0.7500000000000000  0.2500000000000000  0.5497073393679552   T   T   T
  0.0000000000000000  0.0000000000000000  0.5497073393679552   T   T   T
  0.7500000000000000  0.5000000000000000  0.4505367471951232   F   F   F
  0.0000000000000000  0.7500000000000000  0.4505367471951232   F   F   F
  0.7500000000000000  0.7500000000000000  0.3516102415853695   F   F   F
  0.0000000000000000  0.5000000000000000  0.3516102415853695   F   F   F
  0.7500000000000000  0.5000000000000000  0.6501775057681134   T   T   T
  0.0000000000000000  0.7500000000000000  0.6501775057681134   T   T   T
  0.7500000000000000  0.7500000000000000  0.5497073393679552   T   T   T
  0.0000000000000000  0.5000000000000000  0.5497073393679552   T   T   T

  0.00000000E+00  0.00000000E+00  0.00000000E+00
  0.00000000E+00  0.00000000E+00  0.00000000E+00
  0.00000000E+00  0.00000000E+00  0.00000000E+00
  0.00000000E+00  0.00000000E+00  0.00000000E+00
  0.00000000E+00  0.00000000E+00  0.00000000E+00
  0.00000000E+00  0.00000000E+00  0.00000000E+00
  0.00000000E+00  0.00000000E+00  0.00000000E+00
  0.00000000E+00  0.00000000E+00  0.00000000E+00
  0.00000000E+00  0.00000000E+00  0.00000000E+00
  0.00000000E+00  0.00000000E+00  0.00000000E+00
  0.00000000E+00  0.00000000E+00  0.00000000E+00
  0.00000000E+00  0.00000000E+00  0.00000000E+00
  0.00000000E+00  0.00000000E+00  0.00000000E+00
  0.00000000E+00  0.00000000E+00  0.00000000E+00
  0.00000000E+00  0.00000000E+00  0.00000000E+00
  0.00000000E+00  0.00000000E+00  0.00000000E+00
  0.00000000E+00  0.00000000E+00  0.00000000E+00
  0.00000000E+00  0.00000000E+00  0.00000000E+00
  0.00000000E+00  0.00000000E+00  0.00000000E+00
  0.00000000E+00  0.00000000E+00  0.00000000E+00
  0.00000000E+00  0.00000000E+00  0.00000000E+00
  0.00000000E+00  0.00000000E+00  0.00000000E+00
  0.00000000E+00  0.00000000E+00  0.00000000E+00
  0.00000000E+00  0.00000000E+00  0.00000000E+00
  0.00000000E+00  0.00000000E+00  0.00000000E+00
  0.00000000E+00  0.00000000E+00  0.00000000E+00
  0.00000000E+00  0.00000000E+00  0.00000000E+00
  0.00000000E+00  0.00000000E+00  0.00000000E+00
  0.00000000E+00  0.00000000E+00  0.00000000E+00
  0.00000000E+00  0.00000000E+00  0.00000000E+00
  0.00000000E+00  0.00000000E+00  0.00000000E+00
  0.00000000E+00  0.00000000E+00  0.00000000E+00
  0.00000000E+00  0.00000000E+00  0.00000000E+00
  0.00000000E+00  0.00000000E+00  0.00000000E+00
  0.00000000E+00  0.00000000E+00  0.00000000E+00
  0.00000000E+00  0.00000000E+00  0.00000000E+00
  0.00000000E+00  0.00000000E+00  0.00000000E+00
  0.00000000E+00  0.00000000E+00  0.00000000E+00
  0.00000000E+00  0.00000000E+00  0.00000000E+00
  0.00000000E+00  0.00000000E+00  0.00000000E+00
  0.00000000E+00  0.00000000E+00  0.00000000E+00
  0.00000000E+00  0.00000000E+00  0.00000000E+00
  0.00000000E+00  0.00000000E+00  0.00000000E+00
  0.00000000E+00  0.00000000E+00  0.00000000E+00
  0.00000000E+00  0.00000000E+00  0.00000000E+00
  0.00000000E+00  0.00000000E+00  0.00000000E+00
  0.00000000E+00  0.00000000E+00  0.00000000E+00
  0.00000000E+00  0.00000000E+00  0.00000000E+00
  0.00000000E+00  0.00000000E+00  0.00000000E+00
  0.00000000E+00  0.00000000E+00  0.00000000E+00
  0.00000000E+00  0.00000000E+00  0.00000000E+00
  0.00000000E+00  0.00000000E+00  0.00000000E+00
  0.00000000E+00  0.00000000E+00  0.00000000E+00
  0.00000000E+00  0.00000000E+00  0.00000000E+00
  0.00000000E+00  0.00000000E+00  0.00000000E+00
  0.00000000E+00  0.00000000E+00  0.00000000E+00
  0.00000000E+00  0.00000000E+00  0.00000000E+00
  0.00000000E+00  0.00000000E+00  0.00000000E+00
  0.00000000E+00  0.00000000E+00  0.00000000E+00
  0.00000000E+00  0.00000000E+00  0.00000000E+00
  0.00000000E+00  0.00000000E+00  0.00000000E+00
  0.00000000E+00  0.00000000E+00  0.00000000E+00
  0.00000000E+00  0.00000000E+00  0.00000000E+00
  0.00000000E+00  0.00000000E+00  0.00000000E+00
