Mg  O
   1.0000000000000000
     8.4048619949579724    0.0000000000000000    0.0000000000000000
     0.0000000000000000    8.4048619949579724    0.0000000000000000
     0.0000000000000000    0.0000000000000000   21.3036464962184837
   Mg   O
    32    32
Selective dynamics
Direct
  0.2500000000000000  0.0000000000000000  0.3520524057386751   F   F   F
  0.5000000000000000  0.2500000000000000  0.3520524057386751   F   F   F
  0.2500000000000000  0.2500000000000000  0.4506841352462274   F   F   F
  0.5000000000000000  0.0000000000000000  0.4506841352462274   F   F   F
  0.2500000000000000 -0.0000000000000000  0.5498546055259854   T   T   T
  0.5000000000000000  0.2500000000000000  0.5498546055259854   T   T   T
  0.2500000000000000  0.2500000000000000  0.6478007918057318   T   T   T
  0.5000000000000000  0.0000000000000000  0.6478007918057318   T   T   T
  0.2500000000000000  0.5000000000000000  0.3520524057386751   F   F   F
  0.5000000000000000  0.7500000000000000  0.3520524057386751   F   F   F
  0.2500000000000000  0.7500000000000000  0.4506841352462274   F   F   F
  0.5000000000000000  0.5000000000000000  0.4506841352462274   F   F   F
  0.2500000000000000  0.5000000000000000  0.5498546055259854   T   T   T
  0.5000000000000000  0.7500000000000000  0.5498546055259854   T   T   T
  0.2500000000000000  0.7500000000000000  0.6478007918057318   T   T   T
  0.5000000000000000  0.5000000000000000  0.6478007918057318   T   T   T
  0.7500000000000000  0.0000000000000000  0.3520524057386751   F   F   F
  0.0000000000000000  0.2500000000000000  0.3520524057386751   F   F   F
  0.7500000000000000  0.2500000000000000  0.4506841352462274   F   F   F
  0.0000000000000000  0.0000000000000000  0.4506841352462274   F   F   F
  0.7500000000000000  0.0000000000000000  0.5498546055259854   T   T   T
  0.0000000000000000  0.2500000000000000  0.5498546055259854   T   T   T
  0.7500000000000000  0.2500000000000000  0.6478007918057318   T   T   T
 -0.0000000000000000 -0.0000000000000000  0.6478007918057318   T   T   T
  0.7500000000000000  0.5000000000000000  0.3520524057386751   F   F   F
  0.0000000000000000  0.7500000000000000  0.3520524057386751   F   F   F
  0.7500000000000000  0.7500000000000000  0.4506841352462274   F   F   F
  0.0000000000000000  0.5000000000000000  0.4506841352462274   F   F   F
  0.7500000000000000  0.5000000000000000  0.5498546055259854   T   T   T
 -0.0000000000000000  0.7500000000000000  0.5498546055259854   T   T   T
  0.7500000000000000  0.7500000000000000  0.6478007918057318   T   T   T
 -0.0000000000000000  0.5000000000000000  0.6478007918057318   T   T   T
  0.2500000000000000  0.0000000000000000  0.4506841352462274   F   F   F
  0.5000000000000000  0.2500000000000000  0.4506841352462274   F   F   F
  0.2500000000000000  0.2500000000000000  0.3520524057386751   F   F   F
  0.5000000000000000  0.0000000000000000  0.3520524057386751   F   F   F
  0.2500000000000000 -0.0000000000000000  0.6498261890225380   T   T   T
  0.5000000000000000  0.2500000000000000  0.6498261890225380   T   T   T
  0.2500000000000000  0.2500000000000000  0.5495886700860761   T   T   T
  0.5000000000000000 -0.0000000000000000  0.5495886700860761   T   T   T
  0.2500000000000000  0.5000000000000000  0.4506841352462274   F   F   F
  0.5000000000000000  0.7500000000000000  0.4506841352462274   F   F   F
  0.2500000000000000  0.7500000000000000  0.3520524057386751   F   F   F
  0.5000000000000000  0.5000000000000000  0.3520524057386751   F   F   F
  0.2500000000000000  0.5000000000000000  0.6498261890225380   T   T   T
  0.5000000000000000  0.7500000000000000  0.6498261890225380   T   T   T
  0.2500000000000000  0.7500000000000000  0.5495886700860761   T   T   T
  0.5000000000000000  0.5000000000000000  0.5495886700860761   T   T   T
  0.7500000000000000  0.0000000000000000  0.4506841352462274   F   F   F
  0.0000000000000000  0.2500000000000000  0.4506841352462274   F   F   F
  0.7500000000000000  0.2500000000000000  0.3520524057386751   F   F   F
  0.0000000000000000  0.0000000000000000  0.3520524057386751   F   F   F
  0.7500000000000000 -0.0000000000000000  0.6498261890225380   T   T   T
  0.0000000000000000  0.2500000000000000  0.6498261890225380   T   T   T
  0.7500000000000000  0.2500000000000000  0.5495886700860761   T   T   T
  0.0000000000000000 -0.0000000000000000  0.5495886700860761   T   T   T
  0.7500000000000000  0.5000000000000000  0.4506841352462274   F   F   F
  0.0000000000000000  0.7500000000000000  0.4506841352462274   F   F   F
  0.7500000000000000  0.7500000000000000  0.3520524057386751   F   F   F
  0.0000000000000000  0.5000000000000000  0.3520524057386751   F   F   F
  0.7500000000000000  0.5000000000000000  0.6498261890225380   T   T   T
 -0.0000000000000000  0.7500000000000000  0.6498261890225380   T   T   T
  0.7500000000000000  0.7500000000000000  0.5495886700860761   T   T   T
 -0.0000000000000000  0.5000000000000000  0.5495886700860761   T   T   T

  0.00000000E+00  0.00000000E+00  0.00000000E+00
  0.00000000E+00  0.00000000E+00  0.00000000E+00
  0.00000000E+00  0.00000000E+00  0.00000000E+00
  0.00000000E+00  0.00000000E+00  0.00000000E+00
  0.00000000E+00  0.00000000E+00  0.00000000E+00
  0.00000000E+00  0.00000000E+00  0.00000000E+00
  0.00000000E+00  0.00000000E+00  0.00000000E+00
  0.00000000E+00  0.00000000E+00  0.00000000E+00
  0.00000000E+00  0.00000000E+00  0.00000000E+00
  0.00000000E+00  0.00000000E+00  0.00000000E+00
  0.00000000E+00  0.00000000E+00  0.00000000E+00
  0.00000000E+00  0.00000000E+00  0.00000000E+00
  0.00000000E+00  0.00000000E+00  0.00000000E+00
  0.00000000E+00  0.00000000E+00  0.00000000E+00
  0.00000000E+00  0.00000000E+00  0.00000000E+00
  0.00000000E+00  0.00000000E+00  0.00000000E+00
  0.00000000E+00  0.00000000E+00  0.00000000E+00
  0.00000000E+00  0.00000000E+00  0.00000000E+00
  0.00000000E+00  0.00000000E+00  0.00000000E+00
  0.00000000E+00  0.00000000E+00  0.00000000E+00
  0.00000000E+00  0.00000000E+00  0.00000000E+00
  0.00000000E+00  0.00000000E+00  0.00000000E+00
  0.00000000E+00  0.00000000E+00  0.00000000E+00
  0.00000000E+00  0.00000000E+00  0.00000000E+00
  0.00000000E+00  0.00000000E+00  0.00000000E+00
  0.00000000E+00  0.00000000E+00  0.00000000E+00
  0.00000000E+00  0.00000000E+00  0.00000000E+00
  0.00000000E+00  0.00000000E+00  0.00000000E+00
  0.00000000E+00  0.00000000E+00  0.00000000E+00
  0.00000000E+00  0.00000000E+00  0.00000000E+00
  0.00000000E+00  0.00000000E+00  0.00000000E+00
  0.00000000E+00  0.00000000E+00  0.00000000E+00
  0.00000000E+00  0.00000000E+00  0.00000000E+00
  0.00000000E+00  0.00000000E+00  0.00000000E+00
  0.00000000E+00  0.00000000E+00  0.00000000E+00
  0.00000000E+00  0.00000000E+00  0.00000000E+00
  0.00000000E+00  0.00000000E+00  0.00000000E+00
  0.00000000E+00  0.00000000E+00  0.00000000E+00
  0.00000000E+00  0.00000000E+00  0.00000000E+00
  0.00000000E+00  0.00000000E+00  0.00000000E+00
  0.00000000E+00  0.00000000E+00  0.00000000E+00
  0.00000000E+00  0.00000000E+00  0.00000000E+00
  0.00000000E+00  0.00000000E+00  0.00000000E+00
  0.00000000E+00  0.00000000E+00  0.00000000E+00
  0.00000000E+00  0.00000000E+00  0.00000000E+00
  0.00000000E+00  0.00000000E+00  0.00000000E+00
  0.00000000E+00  0.00000000E+00  0.00000000E+00
  0.00000000E+00  0.00000000E+00  0.00000000E+00
  0.00000000E+00  0.00000000E+00  0.00000000E+00
  0.00000000E+00  0.00000000E+00  0.00000000E+00
  0.00000000E+00  0.00000000E+00  0.00000000E+00
  0.00000000E+00  0.00000000E+00  0.00000000E+00
  0.00000000E+00  0.00000000E+00  0.00000000E+00
  0.00000000E+00  0.00000000E+00  0.00000000E+00
  0.00000000E+00  0.00000000E+00  0.00000000E+00
  0.00000000E+00  0.00000000E+00  0.00000000E+00
  0.00000000E+00  0.00000000E+00  0.00000000E+00
  0.00000000E+00  0.00000000E+00  0.00000000E+00
  0.00000000E+00  0.00000000E+00  0.00000000E+00
  0.00000000E+00  0.00000000E+00  0.00000000E+00
  0.00000000E+00  0.00000000E+00  0.00000000E+00
  0.00000000E+00  0.00000000E+00  0.00000000E+00
  0.00000000E+00  0.00000000E+00  0.00000000E+00
  0.00000000E+00  0.00000000E+00  0.00000000E+00
