 C  O
 1.0000000000000000
     8.4409846541513982    0.0000000000000000    0.0000000000000000
     0.0000000000000000    8.4409846541513982    0.0000000000000000
     0.0000000000000000    0.0000000000000000   21.3307384906135482
   C   O
   1   1
Direct
  0.5000000000000000  0.5000000000000000  0.7650538025226633
  0.5000000000000000  0.5000000000000000  0.8188175207907500
