 C  O Mg  O
   1.0000000000000000
     8.4048619949579724    0.0000000000000000    0.0000000000000000
     0.0000000000000000    8.4048619949579724    0.0000000000000000
     0.0000000000000000    0.0000000000000000   21.3036464962184837
   C    O    Mg   O
     1     1    32    32
Selective dynamics
Direct
  0.5000000000000000  0.5000000000000000  0.7677317064399056   T   T   T
  0.5000000000000000  0.5000000000000000  0.8207743465685566   T   T   T
  0.2500000000000000  0.0000000000000000  0.3520524057386751   F   F   F
  0.5000000000000000  0.2500000000000000  0.3520524057386751   F   F   F
  0.2500000000000000  0.2500000000000000  0.4506841352462274   F   F   F
  0.5000000000000000  0.0000000000000000  0.4506841352462274   F   F   F
  0.2501074731815829  0.0000000000000000  0.5497399547321890   T   T   T
  0.5000000000000000  0.2505181320480876  0.5500137036377791   T   T   T
  0.2497434855491120  0.2497434855491120  0.6474479238104145   T   T   T
  0.5000000000000000  0.0000000000000000  0.6475794426441984   T   T   T
  0.2500000000000000  0.5000000000000000  0.3520524057386751   F   F   F
  0.5000000000000000  0.7500000000000000  0.3520524057386751   F   F   F
  0.2500000000000000  0.7500000000000000  0.4506841352462274   F   F   F
  0.5000000000000000  0.5000000000000000  0.4506841352462274   F   F   F
  0.2505181320480876  0.5000000000000000  0.5500137036377791   T   T   T
  0.5000000000000000  0.7494818679519130  0.5500137036377791   T   T   T
  0.2497434855491120  0.7502565144508883  0.6474479238104145   T   T   T
  0.5000000000000000  0.5000000000000000  0.6501920445487155   T   T   T
  0.7500000000000000  0.0000000000000000  0.3520524057386751   F   F   F
  0.0000000000000000  0.2500000000000000  0.3520524057386751   F   F   F
  0.7500000000000000  0.2500000000000000  0.4506841352462274   F   F   F
  0.0000000000000000  0.0000000000000000  0.4506841352462274   F   F   F
  0.7498925268184172  0.0000000000000000  0.5497399547321890   T   T   T
  0.0000000000000000  0.2501074731815829  0.5497399547321890   T   T   T
  0.7502565144508883  0.2497434855491120  0.6474479238104145   T   T   T
  0.0000000000000000  0.0000000000000000  0.6476771877836898   T   T   T
  0.7500000000000000  0.5000000000000000  0.3520524057386751   F   F   F
  0.0000000000000000  0.7500000000000000  0.3520524057386751   F   F   F
  0.7500000000000000  0.7500000000000000  0.4506841352462274   F   F   F
  0.0000000000000000  0.5000000000000000  0.4506841352462274   F   F   F
  0.7494818679519130  0.5000000000000000  0.5500137036377791   T   T   T
  0.0000000000000000  0.7498925268184172  0.5497399547321890   T   T   T
  0.7502565144508883  0.7502565144508883  0.6474479238104145   T   T   T
  0.0000000000000000  0.5000000000000000  0.6475794426441984   T   T   T
  0.2500000000000000  0.0000000000000000  0.4506841352462274   F   F   F
  0.5000000000000000  0.2500000000000000  0.4506841352462274   F   F   F
  0.2500000000000000  0.2500000000000000  0.3520524057386751   F   F   F
  0.5000000000000000  0.0000000000000000  0.3520524057386751   F   F   F
  0.2497428822866542  0.0000000000000000  0.6498062427558607   T   T   T
  0.5000000000000000  0.2488853634249724  0.6499161890804973   T   T   T
  0.2499620426183757  0.2499620426183757  0.5495517536635465   T   T   T
  0.5000000000000000  0.0000000000000000  0.5494980769921528   T   T   T
  0.2500000000000000  0.5000000000000000  0.4506841352462274   F   F   F
  0.5000000000000000  0.7500000000000000  0.4506841352462274   F   F   F
  0.2500000000000000  0.7500000000000000  0.3520524057386751   F   F   F
  0.5000000000000000  0.5000000000000000  0.3520524057386751   F   F   F
  0.2488853634249724  0.5000000000000000  0.6499161890804973   T   T   T
  0.5000000000000000  0.7511146365750274  0.6499161890804973   T   T   T
  0.2499620426183757  0.7500379573816244  0.5495517536635465   T   T   T
  0.5000000000000000  0.5000000000000000  0.5500070894831254   T   T   T
  0.7500000000000000  0.0000000000000000  0.4506841352462274   F   F   F
  0.0000000000000000  0.2500000000000000  0.4506841352462274   F   F   F
  0.7500000000000000  0.2500000000000000  0.3520524057386751   F   F   F
  0.0000000000000000  0.0000000000000000  0.3520524057386751   F   F   F
  0.7502571177133461  0.0000000000000000  0.6498062427558607   T   T   T
  0.0000000000000000  0.2497428822866542  0.6498062427558607   T   T   T
  0.7500379573816244  0.2499620426183757  0.5495517536635465   T   T   T
  0.0000000000000000  0.0000000000000000  0.5495177570922271   T   T   T
  0.7500000000000000  0.5000000000000000  0.4506841352462274   F   F   F
  0.0000000000000000  0.7500000000000000  0.4506841352462274   F   F   F
  0.7500000000000000  0.7500000000000000  0.3520524057386751   F   F   F
  0.0000000000000000  0.5000000000000000  0.3520524057386751   F   F   F
  0.7511146365750274  0.5000000000000000  0.6499161890804973   T   T   T
  0.0000000000000000  0.7502571177133461  0.6498062427558607   T   T   T
  0.7500379573816244  0.7500379573816244  0.5495517536635465   T   T   T
  0.0000000000000000  0.5000000000000000  0.5494980769921528   T   T   T

  0.00000000E+00  0.00000000E+00  0.00000000E+00
  0.00000000E+00  0.00000000E+00  0.00000000E+00
  0.00000000E+00  0.00000000E+00  0.00000000E+00
  0.00000000E+00  0.00000000E+00  0.00000000E+00
  0.00000000E+00  0.00000000E+00  0.00000000E+00
  0.00000000E+00  0.00000000E+00  0.00000000E+00
  0.00000000E+00  0.00000000E+00  0.00000000E+00
  0.00000000E+00  0.00000000E+00  0.00000000E+00
  0.00000000E+00  0.00000000E+00  0.00000000E+00
  0.00000000E+00  0.00000000E+00  0.00000000E+00
  0.00000000E+00  0.00000000E+00  0.00000000E+00
  0.00000000E+00  0.00000000E+00  0.00000000E+00
  0.00000000E+00  0.00000000E+00  0.00000000E+00
  0.00000000E+00  0.00000000E+00  0.00000000E+00
  0.00000000E+00  0.00000000E+00  0.00000000E+00
  0.00000000E+00  0.00000000E+00  0.00000000E+00
  0.00000000E+00  0.00000000E+00  0.00000000E+00
  0.00000000E+00  0.00000000E+00  0.00000000E+00
  0.00000000E+00  0.00000000E+00  0.00000000E+00
  0.00000000E+00  0.00000000E+00  0.00000000E+00
  0.00000000E+00  0.00000000E+00  0.00000000E+00
  0.00000000E+00  0.00000000E+00  0.00000000E+00
  0.00000000E+00  0.00000000E+00  0.00000000E+00
  0.00000000E+00  0.00000000E+00  0.00000000E+00
  0.00000000E+00  0.00000000E+00  0.00000000E+00
  0.00000000E+00  0.00000000E+00  0.00000000E+00
  0.00000000E+00  0.00000000E+00  0.00000000E+00
  0.00000000E+00  0.00000000E+00  0.00000000E+00
  0.00000000E+00  0.00000000E+00  0.00000000E+00
  0.00000000E+00  0.00000000E+00  0.00000000E+00
  0.00000000E+00  0.00000000E+00  0.00000000E+00
  0.00000000E+00  0.00000000E+00  0.00000000E+00
  0.00000000E+00  0.00000000E+00  0.00000000E+00
  0.00000000E+00  0.00000000E+00  0.00000000E+00
  0.00000000E+00  0.00000000E+00  0.00000000E+00
  0.00000000E+00  0.00000000E+00  0.00000000E+00
  0.00000000E+00  0.00000000E+00  0.00000000E+00
  0.00000000E+00  0.00000000E+00  0.00000000E+00
  0.00000000E+00  0.00000000E+00  0.00000000E+00
  0.00000000E+00  0.00000000E+00  0.00000000E+00
  0.00000000E+00  0.00000000E+00  0.00000000E+00
  0.00000000E+00  0.00000000E+00  0.00000000E+00
  0.00000000E+00  0.00000000E+00  0.00000000E+00
  0.00000000E+00  0.00000000E+00  0.00000000E+00
  0.00000000E+00  0.00000000E+00  0.00000000E+00
  0.00000000E+00  0.00000000E+00  0.00000000E+00
  0.00000000E+00  0.00000000E+00  0.00000000E+00
  0.00000000E+00  0.00000000E+00  0.00000000E+00
  0.00000000E+00  0.00000000E+00  0.00000000E+00
  0.00000000E+00  0.00000000E+00  0.00000000E+00
  0.00000000E+00  0.00000000E+00  0.00000000E+00
  0.00000000E+00  0.00000000E+00  0.00000000E+00
  0.00000000E+00  0.00000000E+00  0.00000000E+00
  0.00000000E+00  0.00000000E+00  0.00000000E+00
  0.00000000E+00  0.00000000E+00  0.00000000E+00
  0.00000000E+00  0.00000000E+00  0.00000000E+00
  0.00000000E+00  0.00000000E+00  0.00000000E+00
  0.00000000E+00  0.00000000E+00  0.00000000E+00
  0.00000000E+00  0.00000000E+00  0.00000000E+00
  0.00000000E+00  0.00000000E+00  0.00000000E+00
  0.00000000E+00  0.00000000E+00  0.00000000E+00
  0.00000000E+00  0.00000000E+00  0.00000000E+00
  0.00000000E+00  0.00000000E+00  0.00000000E+00
  0.00000000E+00  0.00000000E+00  0.00000000E+00
  0.00000000E+00  0.00000000E+00  0.00000000E+00
  0.00000000E+00  0.00000000E+00  0.00000000E+00
