SYSTEM=MgO-rocksalt
ISMEAR=0
SIGMA=0.05
EDIFF=1E-7
ALGO=ALL
ISTART=0
IBRION=2
NSW=1000
ISYM=2
ISIF=3
EDIFFG=-0.005


GGA = RE
LUSE_VDW = .TRUE.
AGGAC = 0.0    


ENCUT=600
PREC=Normal  #default (Normal) usually safe, structures/energies change little with Accurate
LASPH=.TRUE.
LREAL=.FALSE.
ISPIN=1
NELM=200
NELMIN=8
NCORE=4
KPAR=2

LWAVE=.FALSE.
LCHARG=.FALSE.
